SDVRP instances/custom_instances/p01_12_splitx10_0.vrp
NAME:p01_12_splitx10_
BEST_KNOWN: 0
COMMENT: 0
DIMENSION: 249
CAPACITY: 1600
EDGE_WEIGHT_FORMAT: FUNCTION
EDGE_WEIGHT_TYPE: EXACT_2D
NODE_COORD_SECTION
1 0.00000 0.00000
2 -4 -48
3 -4 -48
4 -4 -48
5 -4 -48
6 43 37
7 43 37
8 43 37
9 43 37
10 43 -41
11 43 -41
12 43 -41
13 43 -41
14 43 -41
15 43 -41
16 43 -41
17 43 -41
18 8 -12
19 8 -12
20 8 -12
21 8 -12
22 8 -12
23 8 -12
24 8 -12
25 24 7
26 24 7
27 24 7
28 24 7
29 24 7
30 11 -1
31 11 -1
32 11 -1
33 11 -1
34 -1 41
35 -1 41
36 -1 41
37 -1 41
38 -1 41
39 -1 41
40 -1 41
41 26 23
42 26 23
43 26 23
44 26 23
45 26 23
46 26 23
47 30 24
48 5 -23
49 5 -23
50 -5 -33
51 -5 -33
52 -5 -33
53 -5 -33
54 44 -45
55 44 -45
56 44 -45
57 44 -45
58 44 -45
59 44 -45
60 44 -45
61 -47 13
62 -47 13
63 -47 13
64 -47 13
65 -47 13
66 -47 13
67 -36 20
68 -36 20
69 -36 20
70 -36 20
71 -36 20
72 -49 46
73 -49 46
74 -49 46
75 -49 46
76 -49 46
77 -27 -3
78 -27 -3
79 -27 -3
80 48 18
81 48 18
82 48 18
83 48 18
84 -14 -15
85 -14 -15
86 -14 -15
87 -7 -2
88 -7 -2
89 -7 -2
90 -7 -2
91 -7 -2
92 -48 -2
93 -48 -2
94 -48 -2
95 -20 45
96 -20 45
97 -20 45
98 -20 45
99 -20 45
100 19 -13
101 19 -13
102 19 -13
103 19 -13
104 19 -13
105 19 -13
106 19 -13
107 -5 37
108 -5 37
109 -5 37
110 25 30
111 25 30
112 25 30
113 25 30
114 25 30
115 25 30
116 25 30
117 38 -42
118 38 -42
119 38 -42
120 38 -42
121 38 -42
122 -41 -21
123 -41 -21
124 -41 -21
125 -41 -21
126 -41 -21
127 -41 -21
128 -21 -8
129 -21 -8
130 -21 -8
131 -21 -8
132 -21 -8
133 -21 -8
134 -21 -8
135 -49 -3
136 -49 -3
137 -49 -3
138 -38 15
139 -38 15
140 -38 15
141 -38 15
142 -38 15
143 -38 15
144 -20 -37
145 -20 -37
146 -20 -37
147 -20 -37
148 -20 -37
149 -30 -45
150 -30 -45
151 -30 -45
152 -30 -45
153 -30 -45
154 -31 33
155 -31 33
156 -31 33
157 -31 33
158 33 -46
159 33 -46
160 33 -46
161 -1 -30
162 -1 -30
163 -1 -30
164 -1 -30
165 -1 -30
166 -1 -30
167 -27 -21
168 -27 -21
169 -27 -21
170 -26 42
171 -26 42
172 -26 42
173 -26 42
174 45 49
175 45 49
176 45 49
177 45 49
178 45 49
179 -26 -45
180 -26 -45
181 -26 -45
182 -26 -45
183 -26 -45
184 41 -34
185 41 -34
186 41 -34
187 41 -34
188 41 -34
189 41 -34
190 41 -34
191 -16 47
192 -16 47
193 -16 47
194 -16 47
195 -16 47
196 -16 47
197 9 32
198 9 32
199 9 32
200 9 32
201 9 32
202 9 32
203 9 32
204 9 32
205 -45 -2
206 -45 -2
207 32 7
208 32 7
209 32 7
210 32 7
211 32 7
212 32 7
213 32 7
214 32 7
215 -23 43
216 -23 43
217 -23 43
218 -23 43
219 -23 43
220 -50 -39
221 -50 -39
222 -50 -39
223 -50 -39
224 -50 -39
225 -32 13
226 -32 13
227 -32 13
228 -32 13
229 -32 13
230 -32 13
231 -32 13
232 -32 13
233 -47 -31
234 -47 -31
235 31 30
236 31 30
237 31 30
238 31 30
239 -7 45
240 -7 45
241 -7 45
242 -7 45
243 -7 45
244 -7 45
245 -37 22
246 -37 22
247 -37 22
248 -37 22
249 -37 22
DEMAND_SECTION
1 0
2 320
3 320
4 80
5 10
6 320
7 320
8 80
9 10
10 320
11 160
12 80
13 16
14 16
15 16
16 16
17 6
18 320
19 160
20 80
21 16
22 16
23 16
24 2
25 320
26 320
27 16
28 16
29 8
30 320
31 320
32 16
33 4
34 320
35 160
36 80
37 16
38 16
39 16
40 2
41 320
42 320
43 80
44 16
45 16
46 8
47 320
48 320
49 160
50 320
51 160
52 16
53 14
54 320
55 160
56 80
57 16
58 16
59 16
60 2
61 320
62 80
63 16
64 16
65 16
66 2
67 320
68 320
69 16
70 16
71 8
72 160
73 16
74 16
75 16
76 12
77 160
78 80
79 10
80 320
81 160
82 80
83 10
84 320
85 16
86 14
87 320
88 160
89 80
90 16
91 14
92 320
93 160
94 10
95 320
96 16
97 16
98 16
99 2
100 320
101 160
102 80
103 16
104 16
105 16
106 12
107 320
108 320
109 160
110 320
111 320
112 16
113 16
114 16
115 16
116 6
117 320
118 160
119 16
120 16
121 8
122 320
123 80
124 16
125 16
126 16
127 2
128 320
129 320
130 80
131 16
132 16
133 16
134 2
135 160
136 80
137 10
138 320
139 320
140 16
141 16
142 16
143 12
144 320
145 320
146 80
147 16
148 4
149 320
150 160
151 80
152 16
153 14
154 160
155 80
156 16
157 4
158 320
159 320
160 160
161 160
162 80
163 16
164 16
165 16
166 12
167 320
168 320
169 80
170 320
171 320
172 16
173 14
174 160
175 80
176 16
177 16
178 8
179 320
180 320
181 80
182 16
183 4
184 320
185 80
186 16
187 16
188 16
189 16
190 6
191 320
192 16
193 16
194 16
195 16
196 6
197 320
198 320
199 80
200 16
201 16
202 16
203 16
204 6
205 320
206 160
207 320
208 320
209 80
210 16
211 16
212 16
213 16
214 6
215 320
216 160
217 16
218 16
219 8
220 320
221 160
222 16
223 16
224 8
225 320
226 160
227 80
228 16
229 16
230 16
231 16
232 6
233 320
234 320
235 320
236 160
237 80
238 10
239 320
240 80
241 16
242 16
243 16
244 12
245 320
246 160
247 80
248 16
249 14
DEPOT_SECTION
1
-1
EOF