SDVRP instances/custom_instances/p01_12_splitx10_0.sol
248 -9 10 16 12 13 14 11 15 56 58 53 55 59 57 54 118 119 120 117 21 19 20 22 23 -17 18 47 48 160 162 165 163 164 161 52 49 -25 24 28 27 26 213 207 206 208 210 211 212 209 -29 32 31 30 101 103 105 99 104 100 102 -38 37 39 35 33 34 36 106 107 108 -45 44 43 41 42 40 196 201 200 199 203 198 197 202 -46 237 235 234 236 113 109 114 110 115 111 112 -50 51 3 4 1 2 144 147 143 -78 77 76 65 63 62 60 61 64 141 142 138 140 139 137 229 226 230 231 -80 79 82 81 5 6 8 7 173 177 174 175 176 -85 84 83 219 221 223 222 220 232 233 122 -88 89 87 86 90 -123 121 125 126 124 136 134 135 92 91 93 205 204 -129 127 132 130 133 131 128 166 167 168 -145 146 182 180 181 178 179 148 150 149 151 152 -158 159 157 116 184 183 185 189 186 188 187 -215 169 172 171 170 75 73 74 72 71 153 154 155 156 248 247 245 -216 217 218 214 95 96 97 98 94 195 190 191 193 194 192 239 240 243 238 242 241 -225 227 228 224 66 67 69 68 70 246 244 0 





OBJ=
1856.200
BEST_KNOWN=
0.000